c CNF file corresponding to a (partial) station packing problem.
p cnf 2699 229
1 2 3 4 5 6 7 8 9 10 11 12 13 14 0
-1 -2 0
-1 -3 0
-1 -4 0
-1 -5 0
-1 -6 0
-1 -7 0
-1 -8 0
-1 -9 0
-1 -10 0
-1 -11 0
-1 -12 0
-1 -13 0
-1 -14 0
-2 -3 0
-2 -4 0
-2 -5 0
-2 -6 0
-2 -7 0
-2 -8 0
-2 -9 0
-2 -10 0
-2 -11 0
-2 -12 0
-2 -13 0
-2 -14 0
-3 -4 0
-3 -5 0
-3 -6 0
-3 -7 0
-3 -8 0
-3 -9 0
-3 -10 0
-3 -11 0
-3 -12 0
-3 -13 0
-3 -14 0
-4 -5 0
-4 -6 0
-4 -7 0
-4 -8 0
-4 -9 0
-4 -10 0
-4 -11 0
-4 -12 0
-4 -13 0
-4 -14 0
-5 -6 0
-5 -7 0
-5 -8 0
-5 -9 0
-5 -10 0
-5 -11 0
-5 -12 0
-5 -13 0
-5 -14 0
-6 -7 0
-6 -8 0
-6 -9 0
-6 -10 0
-6 -11 0
-6 -12 0
-6 -13 0
-6 -14 0
-7 -8 0
-7 -9 0
-7 -10 0
-7 -11 0
-7 -12 0
-7 -13 0
-7 -14 0
-8 -9 0
-8 -10 0
-8 -11 0
-8 -12 0
-8 -13 0
-8 -14 0
-9 -10 0
-9 -11 0
-9 -12 0
-9 -13 0
-9 -14 0
-10 -11 0
-10 -12 0
-10 -13 0
-10 -14 0
-11 -12 0
-11 -13 0
-11 -14 0
-12 -13 0
-12 -14 0
-13 -14 0
2683 2684 2685 2686 2687 2688 2689 2690 2691 2692 2693 2694 2695 2696 2697 2698 2699 0
-2683 -2684 0
-2683 -2685 0
-2683 -2686 0
-2683 -2687 0
-2683 -2688 0
-2683 -2689 0
-2683 -2690 0
-2683 -2691 0
-2683 -2692 0
-2683 -2693 0
-2683 -2694 0
-2683 -2695 0
-2683 -2696 0
-2683 -2697 0
-2683 -2698 0
-2683 -2699 0
-2684 -2685 0
-2684 -2686 0
-2684 -2687 0
-2684 -2688 0
-2684 -2689 0
-2684 -2690 0
-2684 -2691 0
-2684 -2692 0
-2684 -2693 0
-2684 -2694 0
-2684 -2695 0
-2684 -2696 0
-2684 -2697 0
-2684 -2698 0
-2684 -2699 0
-2685 -2686 0
-2685 -2687 0
-2685 -2688 0
-2685 -2689 0
-2685 -2690 0
-2685 -2691 0
-2685 -2692 0
-2685 -2693 0
-2685 -2694 0
-2685 -2695 0
-2685 -2696 0
-2685 -2697 0
-2685 -2698 0
-2685 -2699 0
-2686 -2687 0
-2686 -2688 0
-2686 -2689 0
-2686 -2690 0
-2686 -2691 0
-2686 -2692 0
-2686 -2693 0
-2686 -2694 0
-2686 -2695 0
-2686 -2696 0
-2686 -2697 0
-2686 -2698 0
-2686 -2699 0
-2687 -2688 0
-2687 -2689 0
-2687 -2690 0
-2687 -2691 0
-2687 -2692 0
-2687 -2693 0
-2687 -2694 0
-2687 -2695 0
-2687 -2696 0
-2687 -2697 0
-2687 -2698 0
-2687 -2699 0
-2688 -2689 0
-2688 -2690 0
-2688 -2691 0
-2688 -2692 0
-2688 -2693 0
-2688 -2694 0
-2688 -2695 0
-2688 -2696 0
-2688 -2697 0
-2688 -2698 0
-2688 -2699 0
-2689 -2690 0
-2689 -2691 0
-2689 -2692 0
-2689 -2693 0
-2689 -2694 0
-2689 -2695 0
-2689 -2696 0
-2689 -2697 0
-2689 -2698 0
-2689 -2699 0
-2690 -2691 0
-2690 -2692 0
-2690 -2693 0
-2690 -2694 0
-2690 -2695 0
-2690 -2696 0
-2690 -2697 0
-2690 -2698 0
-2690 -2699 0
-2691 -2692 0
-2691 -2693 0
-2691 -2694 0
-2691 -2695 0
-2691 -2696 0
-2691 -2697 0
-2691 -2698 0
-2691 -2699 0
-2692 -2693 0
-2692 -2694 0
-2692 -2695 0
-2692 -2696 0
-2692 -2697 0
-2692 -2698 0
-2692 -2699 0
-2693 -2694 0
-2693 -2695 0
-2693 -2696 0
-2693 -2697 0
-2693 -2698 0
-2693 -2699 0
-2694 -2695 0
-2694 -2696 0
-2694 -2697 0
-2694 -2698 0
-2694 -2699 0
-2695 -2696 0
-2695 -2697 0
-2695 -2698 0
-2695 -2699 0
-2696 -2697 0
-2696 -2698 0
-2696 -2699 0
-2697 -2698 0
-2697 -2699 0
-2698 -2699 0
